100 8
733 764
237 426
365 609
352 384
872 198
384 323
810 854
196 264
346 285
373 523
183 615
379 206
790 798
813 693
403 571
468 37
676 482
387 181
792 585
319 490
577 555
939 873
248 228
382 178
854 505
850 716
666 589
502 169
760 275
155 353
490 25
541 674
230 277
281 484
838 168
719 689
311 412
646 613
682 289
380 301
434 690
763 838
135 659
334 97
199 759
368 404
281 604
273 271
254 578
423 136
262 474
855 788
631 703
432 752
362 661
734 568
371 481
235 708
640 430
969 882
377 748
646 626
363 499
291 193
373 71
644 357
179 232
357 411
390 393
351 630
872 805
631 549
350 617
278 239
439 764
654 564
910 117
150 600
445 43
323 520
894 202
622 401
614 437
481 621
354 547
397 130
658 306
814 881
277 191
594 377
788 399
131 352
333 653
478 681
390 652
750 663
479 692
267 396
348 430
247 434
